Traveling Salesman Problem/TSP_generados/Aleatorio1620393982_17.tsp
NAME: Aleatorio1620393982_17.tsp
COMMENT: Randomly generated scenario
TYPE: TSP
DIMENSION: 17
EDGE_WEIGHT_TYPE: ATT
NODE_COORD_SECTION
1 23.17 32.48
2 22.99 30.65
3 39.48 14.88
4 35.61 29.24
5 41.85 0.28
6 16.37 23.81
7 13.39 25.57
8 22.43 29.02
9 30.25 48.39
10 39.02 5.21
11 8.17 33.14
12 46.83 28.65
13 23.71 20.01
14 0.95 28.8
15 18.94 0.9
16 35.0 11.27
17 47.5 27.28
