Traveling Salesman Problem/TSP_generados/Aleatorio1620393982_17.opt.tour
NAME: Aleatorio1620393982_17.opt.tour
COMMENT: Optimal solution for Aleatorio1620393982_17 (177.56147786686498)
TYPE: TOUR
DIMENSION: 17
TOUR_SECTION
1 2 8 11 14 7 6 13 15 5 10 16 3 17 12 4 9
-1
EOF
